
Gurobi 9.1.2 (linux64) logging started Wed Nov 24 10:26:35 2021

Changed value of parameter LogFile to lemke_square_v-(1, 1).log-s20-l10.log
   Prev:   Default: 
Changed value of parameter Threads to 32
   Prev: 0  Min: 0  Max: 1024  Default: 0
Changed value of parameter TimeLimit to 3600.0
   Prev: inf  Min: 0.0  Max: inf  Default: inf
Changed value of parameter MIPGap to 0.4
   Prev: 0.0001  Min: 0.0  Max: inf  Default: 0.0001
Warning: variable name "X[(7, 4),(7, 3)]" has a space
Warning: constraint name "flow-constr-t0-v(3, 0)" has a space
Warning: to let Gurobi read it back, use rlp format
Gurobi Optimizer version 9.1.2 build v9.1.2rc0 (linux64)
Thread count: 16 physical cores, 32 logical processors, using up to 32 threads
Optimize a model with 6073 rows, 5440 columns and 20830 nonzeros
Model fingerprint: 0xce3f7390
Variable types: 0 continuous, 5440 integer (4800 binary)
Coefficient statistics:
  Matrix range     [1e+00, 1e+03]
  Objective range  [1e-01, 1e-01]
  Bounds range     [1e+00, 5e+02]
  RHS range        [1e+00, 1e+03]
Presolve removed 278 rows and 280 columns
Presolve time: 0.04s
Presolved: 5795 rows, 5160 columns, 19380 nonzeros
Variable types: 0 continuous, 5160 integer (4530 binary)

Root relaxation: objective 6.300000e+01, 121 iterations, 0.00 seconds

    Nodes    |    Current Node    |     Objective Bounds      |     Work
 Expl Unexpl |  Obj  Depth IntInf | Incumbent    BestBd   Gap | It/Node Time

     0     0   63.00000    0   50          -   63.00000      -     -    0s
     0     0   63.00000    0   84          -   63.00000      -     -    0s
     0     0   63.00000    0   88          -   63.00000      -     -    0s
     0     0   63.00000    0   56          -   63.00000      -     -    0s
     0     0   63.00000    0   58          -   63.00000      -     -    0s
     0     0   63.00000    0   54          -   63.00000      -     -    0s
H    0     0                    2169.1000000   63.00000  97.1%     -    0s
     0     0   63.00000    0   52 2169.10000   63.00000  97.1%     -    0s
H    0     0                     184.5000000   63.00000  65.9%     -    0s
     0     2   63.00000    0   52  184.50000   63.00000  65.9%     -    0s
H   31    64                     182.7000000   63.00000  65.5%  58.0    1s
H   32    64                     179.5000000   63.00000  64.9%  61.9    1s
H   38    64                     174.1000000   63.00000  63.8%  63.2    1s
H   40    64                     172.9000000   63.00000  63.6%  63.0    1s
H   46    64                     169.7000000   63.00000  62.9%  62.6    1s

Cutting planes:
  Gomory: 7
  Cover: 145
  Implied bound: 163
  Clique: 13
  MIR: 49
  Flow cover: 29
  Zero half: 1
  RLT: 19
  Relax-and-lift: 56

Explored 63 nodes (5691 simplex iterations) in 1.42 seconds
Thread count was 32 (of 32 available processors)

Solution count 7: 169.7 172.9 174.1 ... 2169.1

Solve interrupted
Best objective 1.697000000000e+02, best bound 6.300000000000e+01, gap 62.8757%

Gurobi 9.1.2 (linux64) logging started Wed Nov 24 10:31:43 2021

Changed value of parameter LogFile to lemke_square_v-(1, 1).log-s20-l10.log
   Prev:   Default: 
Changed value of parameter Threads to 32
   Prev: 0  Min: 0  Max: 1024  Default: 0
Changed value of parameter TimeLimit to 3600.0
   Prev: inf  Min: 0.0  Max: inf  Default: inf
Changed value of parameter MIPGap to 0.4
   Prev: 0.0001  Min: 0.0  Max: inf  Default: 0.0001
Warning: variable name "X[(7, 4),(7, 3)]" has a space
Warning: constraint name "flow-constr-t0-v(3, 0)" has a space
Warning: to let Gurobi read it back, use rlp format
Gurobi Optimizer version 9.1.2 build v9.1.2rc0 (linux64)
Thread count: 16 physical cores, 32 logical processors, using up to 32 threads
Optimize a model with 6073 rows, 5440 columns and 20830 nonzeros
Model fingerprint: 0xce3f7390
Variable types: 0 continuous, 5440 integer (4800 binary)
Coefficient statistics:
  Matrix range     [1e+00, 1e+03]
  Objective range  [1e-01, 1e-01]
  Bounds range     [1e+00, 5e+02]
  RHS range        [1e+00, 1e+03]
Presolve removed 278 rows and 280 columns
Presolve time: 0.04s
Presolved: 5795 rows, 5160 columns, 19380 nonzeros
Variable types: 0 continuous, 5160 integer (4530 binary)

Root relaxation: objective 6.300000e+01, 121 iterations, 0.00 seconds

    Nodes    |    Current Node    |     Objective Bounds      |     Work
 Expl Unexpl |  Obj  Depth IntInf | Incumbent    BestBd   Gap | It/Node Time

     0     0   63.00000    0   50          -   63.00000      -     -    0s
     0     0   63.00000    0   84          -   63.00000      -     -    0s
     0     0   63.00000    0   88          -   63.00000      -     -    0s
     0     0   63.00000    0   56          -   63.00000      -     -    0s
     0     0   63.00000    0   58          -   63.00000      -     -    0s
     0     0   63.00000    0   54          -   63.00000      -     -    0s
H    0     0                    2169.1000000   63.00000  97.1%     -    0s
     0     0   63.00000    0   52 2169.10000   63.00000  97.1%     -    0s
H    0     0                     184.5000000   63.00000  65.9%     -    0s
     0     2   63.00000    0   52  184.50000   63.00000  65.9%     -    0s
H   31    64                     182.7000000   63.00000  65.5%  58.0    2s
H   32    64                     177.5000000   63.00000  64.5%  61.9    2s
H   34    64                     170.9000000   63.00000  63.1%  64.3    2s
H   38    64                     169.8000000   63.00000  62.9%  63.2    2s
H   40    64                     163.8000000   63.00000  61.5%  63.0    2s
H   96   126                     150.6000000   63.00000  58.2%  52.9    3s
  4215  6601   64.60000   61  173  150.60000   63.00000  58.2%  16.9    5s
H 9511  8683                     133.2000000   63.00000  52.7%  11.3    5s
H 9513  8245                     132.8000000   63.00000  52.6%  11.3    5s
H 9514  7832                     119.7000000   63.00000  47.4%  11.3    6s
H 9532  7455                     116.5000000   63.00000  45.9%  12.4    9s
  9546  7479   63.00000   17   56  116.50000   63.00000  45.9%  12.4   10s
H 9562  7132                     115.5000000   63.00000  45.5%  12.4   11s
H 9563  6778                     110.1000000   63.00000  42.8%  12.4   11s
H 9626  6484                     108.1000000   63.00000  41.7%  12.4   11s
H18176 12179                     105.2000000   63.00000  40.1%   8.6   14s
H18239 11848                     104.0000000   63.00000  39.4%   8.5   14s
H19310 11141                     103.3000000   63.00000  39.0%   8.3   14s

Cutting planes:
  Gomory: 8
  Cover: 129
  Implied bound: 173
  Projected implied bound: 6
  Clique: 40
  MIR: 33
  Flow cover: 55
  GUB cover: 7
  RLT: 9
  Relax-and-lift: 42

Explored 20401 nodes (165385 simplex iterations) in 14.37 seconds
Thread count was 32 (of 32 available processors)

Solution count 10: 103.3 104 105.2 ... 133.2

Optimal solution found (tolerance 4.00e-01)
Best objective 1.033000000000e+02, best bound 6.300000000000e+01, gap 39.0126%

Gurobi 9.1.2 (linux64) logging started Wed Nov 24 11:38:58 2021

Changed value of parameter LogFile to lemke_square_v-(1, 1).log-s20-l10.log
   Prev:   Default: 
Changed value of parameter Threads to 32
   Prev: 0  Min: 0  Max: 1024  Default: 0
Changed value of parameter TimeLimit to 3600.0
   Prev: inf  Min: 0.0  Max: inf  Default: inf
Changed value of parameter MIPGap to 0.34
   Prev: 0.0001  Min: 0.0  Max: inf  Default: 0.0001
Warning: variable name "X[(7, 4),(7, 3)]" has a space
Warning: constraint name "flow-constr-t0-v(3, 0)" has a space
Warning: to let Gurobi read it back, use rlp format
Gurobi Optimizer version 9.1.2 build v9.1.2rc0 (linux64)
Thread count: 16 physical cores, 32 logical processors, using up to 32 threads
Optimize a model with 6073 rows, 5440 columns and 20830 nonzeros
Model fingerprint: 0xce3f7390
Variable types: 0 continuous, 5440 integer (4800 binary)
Coefficient statistics:
  Matrix range     [1e+00, 1e+03]
  Objective range  [1e-01, 1e-01]
  Bounds range     [1e+00, 5e+02]
  RHS range        [1e+00, 1e+03]
Presolve removed 278 rows and 280 columns
Presolve time: 0.04s
Presolved: 5795 rows, 5160 columns, 19380 nonzeros
Variable types: 0 continuous, 5160 integer (4530 binary)

Root relaxation: objective 6.300000e+01, 121 iterations, 0.00 seconds

    Nodes    |    Current Node    |     Objective Bounds      |     Work
 Expl Unexpl |  Obj  Depth IntInf | Incumbent    BestBd   Gap | It/Node Time

     0     0   63.00000    0   50          -   63.00000      -     -    0s
     0     0   63.00000    0   84          -   63.00000      -     -    0s
     0     0   63.00000    0   88          -   63.00000      -     -    0s
     0     0   63.00000    0   56          -   63.00000      -     -    0s
     0     0   63.00000    0   58          -   63.00000      -     -    0s
     0     0   63.00000    0   54          -   63.00000      -     -    0s
H    0     0                    2169.1000000   63.00000  97.1%     -    0s
     0     0   63.00000    0   52 2169.10000   63.00000  97.1%     -    0s

Cutting planes:
  Gomory: 2
  Cover: 58
  Implied bound: 50
  Clique: 13
  MIR: 37
  Flow cover: 22
  Zero half: 1
  RLT: 7
  Relax-and-lift: 37

Explored 1 nodes (1822 simplex iterations) in 0.54 seconds
Thread count was 32 (of 32 available processors)

Solution count 1: 2169.1 

Solve interrupted
Best objective 2.169100000000e+03, best bound 6.300000000000e+01, gap 97.0956%

Gurobi 9.1.2 (linux64) logging started Wed Nov 24 11:40:17 2021

Changed value of parameter LogFile to lemke_square_v-(1, 1).log-s20-l10.log
   Prev:   Default: 
Changed value of parameter Threads to 32
   Prev: 0  Min: 0  Max: 1024  Default: 0
Changed value of parameter TimeLimit to 3600.0
   Prev: inf  Min: 0.0  Max: inf  Default: inf
Changed value of parameter MIPGap to 0.3
   Prev: 0.0001  Min: 0.0  Max: inf  Default: 0.0001
Warning: variable name "X[(7, 4),(7, 3)]" has a space
Warning: constraint name "flow-constr-t0-v(3, 0)" has a space
Warning: to let Gurobi read it back, use rlp format
Gurobi Optimizer version 9.1.2 build v9.1.2rc0 (linux64)
Thread count: 16 physical cores, 32 logical processors, using up to 32 threads
Optimize a model with 6073 rows, 5440 columns and 20830 nonzeros
Model fingerprint: 0xce3f7390
Variable types: 0 continuous, 5440 integer (4800 binary)
Coefficient statistics:
  Matrix range     [1e+00, 1e+03]
  Objective range  [1e-01, 1e-01]
  Bounds range     [1e+00, 5e+02]
  RHS range        [1e+00, 1e+03]
Presolve removed 278 rows and 280 columns
Presolve time: 0.04s
Presolved: 5795 rows, 5160 columns, 19380 nonzeros
Variable types: 0 continuous, 5160 integer (4530 binary)

Root relaxation: objective 6.300000e+01, 121 iterations, 0.00 seconds

    Nodes    |    Current Node    |     Objective Bounds      |     Work
 Expl Unexpl |  Obj  Depth IntInf | Incumbent    BestBd   Gap | It/Node Time

     0     0   63.00000    0   50          -   63.00000      -     -    0s
     0     0   63.00000    0   84          -   63.00000      -     -    0s
     0     0   63.00000    0   88          -   63.00000      -     -    0s
     0     0   63.00000    0   56          -   63.00000      -     -    0s
     0     0   63.00000    0   58          -   63.00000      -     -    0s
     0     0   63.00000    0   54          -   63.00000      -     -    0s
H    0     0                    2169.1000000   63.00000  97.1%     -    0s
     0     0   63.00000    0   52 2169.10000   63.00000  97.1%     -    0s
H    0     0                     184.5000000   63.00000  65.9%     -    0s
     0     2   63.00000    0   52  184.50000   63.00000  65.9%     -    0s
H   31    64                     182.7000000   63.00000  65.5%  58.0    2s
H   32    64                     177.5000000   63.00000  64.5%  61.9    2s
H   34    64                     170.9000000   63.00000  63.1%  64.3    2s
H   38    64                     169.8000000   63.00000  62.9%  63.2    2s
H   40    64                     163.8000000   63.00000  61.5%  63.0    2s
H   96   126                     150.6000000   63.00000  58.2%  52.9    3s
  4215  6601   64.60000   61  173  150.60000   63.00000  58.2%  16.9    5s
H 9511  8683                     133.2000000   63.00000  52.7%  11.3    5s
H 9513  8245                     132.8000000   63.00000  52.6%  11.3    6s
H 9514  7832                     119.7000000   63.00000  47.4%  11.3    6s
H 9532  7455                     116.5000000   63.00000  45.9%  12.4    9s
  9546  7479   63.00000   17   56  116.50000   63.00000  45.9%  12.4   10s
H 9562  7132                     115.5000000   63.00000  45.5%  12.4   10s
H 9563  6778                     110.1000000   63.00000  42.8%  12.4   10s
H 9626  6484                     108.1000000   63.00000  41.7%  12.4   11s
H18176 12179                     105.2000000   63.00000  40.1%   8.6   14s
H18239 11848                     104.0000000   63.00000  39.4%   8.5   14s
H19310 11141                     103.3000000   63.00000  39.0%   8.3   14s
H25728 13135                     103.1000000   63.00000  38.9%   7.2   15s
H25729 12976                     102.9000000   63.00000  38.8%   7.2   15s
H25736 12967                     102.6000000   63.00000  38.6%   7.2   15s
H25739 12967                     102.5000000   63.00000  38.5%   7.2   15s
H25742 12966                     102.3000000   63.00000  38.4%   7.2   15s
H25753 12911                     100.3000000   63.00000  37.2%   7.2   15s
H25764 12902                      99.5000000   63.00000  36.7%   7.2   15s
 36347 21751   91.10000   75   60   99.50000   63.00000  36.7%   6.4   21s
H36348 21738                      99.3000000   63.00000  36.6%   6.4   21s
H36354 21409                      96.8000000   63.00000  34.9%   6.4   21s
H36374 20944                      96.1000000   63.00000  34.4%   6.4   21s
H36387 20935                      95.9000000   63.00000  34.3%   6.4   22s
H36388 19049                      90.5000000   63.00000  30.4%   6.4   23s
H36401 18351                      88.9000000   63.00000  29.1%   6.4   23s
H36407 18274                      88.7000000   63.00000  29.0%   6.4   23s

Cutting planes:
  Gomory: 8
  Cover: 129
  Implied bound: 173
  Projected implied bound: 6
  Clique: 40
  MIR: 33
  Flow cover: 55
  GUB cover: 7
  RLT: 9
  Relax-and-lift: 42

Explored 36436 nodes (233892 simplex iterations) in 23.05 seconds
Thread count was 32 (of 32 available processors)

Solution count 10: 88.7 88.9 90.5 ... 102.3

Optimal solution found (tolerance 3.00e-01)
Best objective 8.870000000000e+01, best bound 6.300000000000e+01, gap 28.9741%
